p cnf 484 1
484 0
w 1 0.966326
w 2 1 1
w 2 -1 0
w 3 2 0.724624
w 3 -2 0.785269
w 4 3 0
w 4 -3 1
w 5 4 0.144631
w 5 -4 0.769811
w 6 5 0.745447
w 6 -5 0.292043
w 7 6 0.145783
w 7 -6 0.0845514
w 8 7 0.22788
w 8 -7 0.619696
w 9 8 1
w 9 -8 0
w 10 9 0.172076
w 10 -9 0.737018
w 11 10 0.79877
w 11 -10 0.163084
w 12 11 0.225968
w 12 -11 0.838229
w 13 12 0.916576
w 13 -12 0.238763
w 14 13 0.6412
w 14 -13 0.0240319
w 15 14 0
w 15 -14 1
w 16 15 0.378899
w 16 -15 0.477457
w 17 16 1
w 17 -16 0
w 18 17 0.487614
w 18 -17 0.270129
w 19 18 0.309824
w 19 -18 0.498009
w 20 19 0
w 20 -19 1
w 21 20 0.33034
w 21 -20 0.590752
w 22 21 0
w 22 -21 1
w 23 1 0
w 23 -1 1
w 24 23 2 1
w 24 23 -2 1
w 24 -23 2 0
w 24 -23 -2 0
w 25 24 3 0.126951
w 25 24 -3 0.173267
w 25 -24 3 0.800733
w 25 -24 -3 0.36122
w 26 25 4 0.607841
w 26 25 -4 0.740119
w 26 -25 4 0.35837
w 26 -25 -4 0.166567
w 27 26 5 0.12787
w 27 26 -5 0.654181
w 27 -26 5 0.134594
w 27 -26 -5 0.981921
w 28 27 6 0.632603
w 28 27 -6 0.455669
w 28 -27 6 0.382681
w 28 -27 -6 0.43221
w 29 28 7 0.973433
w 29 28 -7 0.968835
w 29 -28 7 0.0299314
w 29 -28 -7 0.362956
w 30 29 8 0
w 30 29 -8 1
w 30 -29 8 1
w 30 -29 -8 0
w 31 30 9 0
w 31 30 -9 0
w 31 -30 9 1
w 31 -30 -9 1
w 32 31 10 0.564693
w 32 31 -10 0.391758
w 32 -31 10 0.678507
w 32 -31 -10 0.923063
w 33 32 11 0
w 33 32 -11 1
w 33 -32 11 0
w 33 -32 -11 1
w 34 33 12 1
w 34 33 -12 1
w 34 -33 12 0
w 34 -33 -12 0
w 35 34 13 1
w 35 34 -13 0
w 35 -34 13 1
w 35 -34 -13 1
w 36 35 14 0.379758
w 36 35 -14 0.567022
w 36 -35 14 0.874027
w 36 -35 -14 0.586241
w 37 36 15 0
w 37 36 -15 1
w 37 -36 15 1
w 37 -36 -15 1
w 38 37 16 0
w 38 37 -16 1
w 38 -37 16 0
w 38 -37 -16 0
w 39 38 17 0
w 39 38 -17 1
w 39 -38 17 0
w 39 -38 -17 0
w 40 39 18 0
w 40 39 -18 1
w 40 -39 18 0
w 40 -39 -18 0
w 41 40 19 1
w 41 40 -19 0
w 41 -40 19 0
w 41 -40 -19 0
w 42 41 20 1
w 42 41 -20 1
w 42 -41 20 1
w 42 -41 -20 0
w 43 42 21 1
w 43 42 -21 1
w 43 -42 21 0
w 43 -42 -21 0
w 44 43 22 1
w 44 43 -22 0
w 44 -43 22 1
w 44 -43 -22 1
w 45 23 1
w 45 -23 0
w 46 45 24 1
w 46 45 -24 0
w 46 -45 24 0
w 46 -45 -24 1
w 47 46 25 1
w 47 46 -25 1
w 47 -46 25 0
w 47 -46 -25 1
w 48 47 26 0.377157
w 48 47 -26 0.238277
w 48 -47 26 0.681368
w 48 -47 -26 0.0569957
w 49 48 27 0.955769
w 49 48 -27 0.610861
w 49 -48 27 0.975241
w 49 -48 -27 0.24741
w 50 49 28 0
w 50 49 -28 0
w 50 -49 28 1
w 50 -49 -28 1
w 51 50 29 1
w 51 50 -29 0
w 51 -50 29 0
w 51 -50 -29 1
w 52 51 30 0.56689
w 52 51 -30 0.194373
w 52 -51 30 0.40182
w 52 -51 -30 0.383162
w 53 52 31 0
w 53 52 -31 1
w 53 -52 31 0
w 53 -52 -31 0
w 54 53 32 0.182123
w 54 53 -32 0.713142
w 54 -53 32 0.222397
w 54 -53 -32 0.863492
w 55 54 33 0.0360359
w 55 54 -33 0.819261
w 55 -54 33 0.380998
w 55 -54 -33 0.0112766
w 56 55 34 0
w 56 55 -34 0
w 56 -55 34 0
w 56 -55 -34 1
w 57 56 35 1
w 57 56 -35 1
w 57 -56 35 0
w 57 -56 -35 1
w 58 57 36 0
w 58 57 -36 0
w 58 -57 36 1
w 58 -57 -36 0
w 59 58 37 0.904971
w 59 58 -37 0.0261832
w 59 -58 37 0.826394
w 59 -58 -37 0.113104
w 60 59 38 1
w 60 59 -38 0
w 60 -59 38 0
w 60 -59 -38 1
w 61 60 39 1
w 61 60 -39 1
w 61 -60 39 0
w 61 -60 -39 1
w 62 61 40 0
w 62 61 -40 1
w 62 -61 40 0
w 62 -61 -40 0
w 63 62 41 1
w 63 62 -41 1
w 63 -62 41 0
w 63 -62 -41 1
w 64 63 42 0.398494
w 64 63 -42 0.315507
w 64 -63 42 0.433898
w 64 -63 -42 0.666404
w 65 64 43 1
w 65 64 -43 0
w 65 -64 43 1
w 65 -64 -43 1
w 66 65 44 0
w 66 65 -44 0
w 66 -65 44 1
w 66 -65 -44 0
w 67 45 0.138425
w 67 -45 0.907714
w 68 67 46 1
w 68 67 -46 0
w 68 -67 46 0
w 68 -67 -46 0
w 69 68 47 0
w 69 68 -47 0
w 69 -68 47 1
w 69 -68 -47 0
w 70 69 48 1
w 70 69 -48 1
w 70 -69 48 0
w 70 -69 -48 1
w 71 70 49 0
w 71 70 -49 1
w 71 -70 49 0
w 71 -70 -49 0
w 72 71 50 1
w 72 71 -50 0
w 72 -71 50 1
w 72 -71 -50 0
w 73 72 51 1
w 73 72 -51 1
w 73 -72 51 1
w 73 -72 -51 0
w 74 73 52 0.305779
w 74 73 -52 0.37302
w 74 -73 52 0.975137
w 74 -73 -52 0.59665
w 75 74 53 1
w 75 74 -53 0
w 75 -74 53 1
w 75 -74 -53 1
w 76 75 54 0
w 76 75 -54 1
w 76 -75 54 0
w 76 -75 -54 0
w 77 76 55 0.97616
w 77 76 -55 0.665334
w 77 -76 55 0.0218204
w 77 -76 -55 0.209309
w 78 77 56 0
w 78 77 -56 0
w 78 -77 56 1
w 78 -77 -56 0
w 79 78 57 1
w 79 78 -57 1
w 79 -78 57 0
w 79 -78 -57 0
w 80 79 58 0.183984
w 80 79 -58 0.291027
w 80 -79 58 0.561409
w 80 -79 -58 0.492609
w 81 80 59 0
w 81 80 -59 0
w 81 -80 59 0
w 81 -80 -59 1
w 82 81 60 0
w 82 81 -60 0
w 82 -81 60 1
w 82 -81 -60 1
w 83 82 61 0
w 83 82 -61 1
w 83 -82 61 0
w 83 -82 -61 0
w 84 83 62 1
w 84 83 -62 1
w 84 -83 62 0
w 84 -83 -62 1
w 85 84 63 0
w 85 84 -63 0
w 85 -84 63 1
w 85 -84 -63 1
w 86 85 64 1
w 86 85 -64 0
w 86 -85 64 1
w 86 -85 -64 0
w 87 86 65 1
w 87 86 -65 0
w 87 -86 65 0
w 87 -86 -65 1
w 88 87 66 1
w 88 87 -66 0
w 88 -87 66 0
w 88 -87 -66 1
w 89 67 1
w 89 -67 0
w 90 89 68 0
w 90 89 -68 1
w 90 -89 68 1
w 90 -89 -68 0
w 91 90 69 0
w 91 90 -69 0
w 91 -90 69 0
w 91 -90 -69 1
w 92 91 70 1
w 92 91 -70 0
w 92 -91 70 0
w 92 -91 -70 0
w 93 92 71 0.0590946
w 93 92 -71 0.625423
w 93 -92 71 0.0086739
w 93 -92 -71 0.652192
w 94 93 72 0.161943
w 94 93 -72 0.701313
w 94 -93 72 0.112236
w 94 -93 -72 0.583956
w 95 94 73 1
w 95 94 -73 0
w 95 -94 73 1
w 95 -94 -73 0
w 96 95 74 1
w 96 95 -74 0
w 96 -95 74 1
w 96 -95 -74 1
w 97 96 75 0.26364
w 97 96 -75 0.340712
w 97 -96 75 0.182029
w 97 -96 -75 0.34389
w 98 97 76 1
w 98 97 -76 0
w 98 -97 76 0
w 98 -97 -76 1
w 99 98 77 1
w 99 98 -77 0
w 99 -98 77 0
w 99 -98 -77 1
w 100 99 78 1
w 100 99 -78 1
w 100 -99 78 0
w 100 -99 -78 1
w 101 100 79 0
w 101 100 -79 0
w 101 -100 79 1
w 101 -100 -79 1
w 102 101 80 0
w 102 101 -80 0
w 102 -101 80 1
w 102 -101 -80 1
w 103 102 81 0
w 103 102 -81 1
w 103 -102 81 1
w 103 -102 -81 1
w 104 103 82 1
w 104 103 -82 0
w 104 -103 82 1
w 104 -103 -82 0
w 105 104 83 0
w 105 104 -83 1
w 105 -104 83 1
w 105 -104 -83 0
w 106 105 84 0.76846
w 106 105 -84 0.980095
w 106 -105 84 0.309228
w 106 -105 -84 0.009012
w 107 106 85 1
w 107 106 -85 0
w 107 -106 85 1
w 107 -106 -85 0
w 108 107 86 0
w 108 107 -86 1
w 108 -107 86 0
w 108 -107 -86 1
w 109 108 87 0.513073
w 109 108 -87 0.325906
w 109 -108 87 0.639326
w 109 -108 -87 0.891504
w 110 109 88 0
w 110 109 -88 0
w 110 -109 88 0
w 110 -109 -88 1
w 111 89 1
w 111 -89 0
w 112 111 90 1
w 112 111 -90 0
w 112 -111 90 1
w 112 -111 -90 1
w 113 112 91 0
w 113 112 -91 0
w 113 -112 91 1
w 113 -112 -91 1
w 114 113 92 0
w 114 113 -92 0
w 114 -113 92 1
w 114 -113 -92 0
w 115 114 93 0.618676
w 115 114 -93 0.494891
w 115 -114 93 0.650131
w 115 -114 -93 0.131749
w 116 115 94 0.289457
w 116 115 -94 0.0232534
w 116 -115 94 0.970969
w 116 -115 -94 0.0507248
w 117 116 95 0
w 117 116 -95 0
w 117 -116 95 0
w 117 -116 -95 1
w 118 117 96 0.859156
w 118 117 -96 0.877718
w 118 -117 96 0.438506
w 118 -117 -96 0.520872
w 119 118 97 0.0679628
w 119 118 -97 0.491816
w 119 -118 97 0.895226
w 119 -118 -97 0.866805
w 120 119 98 0.483696
w 120 119 -98 0.648313
w 120 -119 98 0.334194
w 120 -119 -98 0.627017
w 121 120 99 0
w 121 120 -99 0
w 121 -120 99 1
w 121 -120 -99 0
w 122 121 100 1
w 122 121 -100 1
w 122 -121 100 0
w 122 -121 -100 1
w 123 122 101 0
w 123 122 -101 1
w 123 -122 101 1
w 123 -122 -101 1
w 124 123 102 0
w 124 123 -102 1
w 124 -123 102 1
w 124 -123 -102 1
w 125 124 103 0.451799
w 125 124 -103 0.723276
w 125 -124 103 0.678395
w 125 -124 -103 0.318604
w 126 125 104 1
w 126 125 -104 0
w 126 -125 104 1
w 126 -125 -104 1
w 127 126 105 1
w 127 126 -105 0
w 127 -126 105 1
w 127 -126 -105 1
w 128 127 106 0
w 128 127 -106 0
w 128 -127 106 1
w 128 -127 -106 1
w 129 128 107 0
w 129 128 -107 0
w 129 -128 107 1
w 129 -128 -107 1
w 130 129 108 0
w 130 129 -108 0
w 130 -129 108 1
w 130 -129 -108 1
w 131 130 109 1
w 131 130 -109 0
w 131 -130 109 1
w 131 -130 -109 0
w 132 131 110 1
w 132 131 -110 0
w 132 -131 110 1
w 132 -131 -110 0
w 133 111 1
w 133 -111 0
w 134 133 112 0.656102
w 134 133 -112 0.0519036
w 134 -133 112 0.694483
w 134 -133 -112 0.0683449
w 135 134 113 1
w 135 134 -113 0
w 135 -134 113 1
w 135 -134 -113 0
w 136 135 114 1
w 136 135 -114 1
w 136 -135 114 1
w 136 -135 -114 0
w 137 136 115 0.376611
w 137 136 -115 0.910023
w 137 -136 115 0.433697
w 137 -136 -115 0.864049
w 138 137 116 0.392752
w 138 137 -116 0.0747631
w 138 -137 116 0.571831
w 138 -137 -116 0.670411
w 139 138 117 0.404023
w 139 138 -117 0.914986
w 139 -138 117 0.676812
w 139 -138 -117 0.0253236
w 140 139 118 0
w 140 139 -118 0
w 140 -139 118 1
w 140 -139 -118 0
w 141 140 119 0
w 141 140 -119 1
w 141 -140 119 0
w 141 -140 -119 1
w 142 141 120 0
w 142 141 -120 1
w 142 -141 120 1
w 142 -141 -120 1
w 143 142 121 1
w 143 142 -121 0
w 143 -142 121 0
w 143 -142 -121 0
w 144 143 122 1
w 144 143 -122 1
w 144 -143 122 0
w 144 -143 -122 0
w 145 144 123 0
w 145 144 -123 1
w 145 -144 123 1
w 145 -144 -123 1
w 146 145 124 0.175147
w 146 145 -124 0.74551
w 146 -145 124 0.546209
w 146 -145 -124 0.813062
w 147 146 125 0.295979
w 147 146 -125 0.658982
w 147 -146 125 0.788286
w 147 -146 -125 0.927033
w 148 147 126 1
w 148 147 -126 1
w 148 -147 126 1
w 148 -147 -126 0
w 149 148 127 0
w 149 148 -127 1
w 149 -148 127 1
w 149 -148 -127 0
w 150 149 128 1
w 150 149 -128 1
w 150 -149 128 0
w 150 -149 -128 1
w 151 150 129 1
w 151 150 -129 0
w 151 -150 129 0
w 151 -150 -129 0
w 152 151 130 0
w 152 151 -130 1
w 152 -151 130 0
w 152 -151 -130 1
w 153 152 131 1
w 153 152 -131 1
w 153 -152 131 1
w 153 -152 -131 0
w 154 153 132 0.804657
w 154 153 -132 0.872457
w 154 -153 132 0.885142
w 154 -153 -132 0.770228
w 155 133 1
w 155 -133 0
w 156 155 134 0.0236759
w 156 155 -134 0.509198
w 156 -155 134 0.766954
w 156 -155 -134 0.298917
w 157 156 135 0
w 157 156 -135 1
w 157 -156 135 1
w 157 -156 -135 0
w 158 157 136 1
w 158 157 -136 0
w 158 -157 136 0
w 158 -157 -136 0
w 159 158 137 0.790703
w 159 158 -137 0.5512
w 159 -158 137 0.5174
w 159 -158 -137 0.321176
w 160 159 138 1
w 160 159 -138 0
w 160 -159 138 0
w 160 -159 -138 1
w 161 160 139 1
w 161 160 -139 0
w 161 -160 139 0
w 161 -160 -139 1
w 162 161 140 0
w 162 161 -140 1
w 162 -161 140 0
w 162 -161 -140 1
w 163 162 141 0
w 163 162 -141 0
w 163 -162 141 1
w 163 -162 -141 1
w 164 163 142 1
w 164 163 -142 0
w 164 -163 142 0
w 164 -163 -142 0
w 165 164 143 0
w 165 164 -143 0
w 165 -164 143 1
w 165 -164 -143 0
w 166 165 144 0.992382
w 166 165 -144 0.394797
w 166 -165 144 0.874595
w 166 -165 -144 0.0863735
w 167 166 145 1
w 167 166 -145 0
w 167 -166 145 0
w 167 -166 -145 0
w 168 167 146 0
w 168 167 -146 1
w 168 -167 146 1
w 168 -167 -146 0
w 169 168 147 0.298086
w 169 168 -147 0.558879
w 169 -168 147 0.0993187
w 169 -168 -147 0.986726
w 170 169 148 1
w 170 169 -148 0
w 170 -169 148 0
w 170 -169 -148 1
w 171 170 149 1
w 171 170 -149 1
w 171 -170 149 0
w 171 -170 -149 0
w 172 171 150 1
w 172 171 -150 1
w 172 -171 150 0
w 172 -171 -150 1
w 173 172 151 0
w 173 172 -151 0
w 173 -172 151 1
w 173 -172 -151 0
w 174 173 152 0
w 174 173 -152 1
w 174 -173 152 0
w 174 -173 -152 1
w 175 174 153 0.354017
w 175 174 -153 0.680433
w 175 -174 153 0.454783
w 175 -174 -153 0.453335
w 176 175 154 1
w 176 175 -154 1
w 176 -175 154 0
w 176 -175 -154 1
w 177 155 0.969169
w 177 -155 0.967197
w 178 177 156 0.504184
w 178 177 -156 0.591474
w 178 -177 156 0.973584
w 178 -177 -156 0.878194
w 179 178 157 1
w 179 178 -157 0
w 179 -178 157 1
w 179 -178 -157 1
w 180 179 158 1
w 180 179 -158 0
w 180 -179 158 1
w 180 -179 -158 1
w 181 180 159 1
w 181 180 -159 0
w 181 -180 159 0
w 181 -180 -159 0
w 182 181 160 0.3647
w 182 181 -160 0.469457
w 182 -181 160 0.56822
w 182 -181 -160 0.516552
w 183 182 161 0
w 183 182 -161 1
w 183 -182 161 1
w 183 -182 -161 0
w 184 183 162 0
w 184 183 -162 0
w 184 -183 162 0
w 184 -183 -162 1
w 185 184 163 1
w 185 184 -163 0
w 185 -184 163 0
w 185 -184 -163 1
w 186 185 164 1
w 186 185 -164 1
w 186 -185 164 1
w 186 -185 -164 0
w 187 186 165 0.980062
w 187 186 -165 0.926259
w 187 -186 165 0.718598
w 187 -186 -165 0.996184
w 188 187 166 0.0832977
w 188 187 -166 0.465641
w 188 -187 166 0.39554
w 188 -187 -166 0.59985
w 189 188 167 0
w 189 188 -167 0
w 189 -188 167 0
w 189 -188 -167 1
w 190 189 168 0
w 190 189 -168 1
w 190 -189 168 0
w 190 -189 -168 1
w 191 190 169 0.560951
w 191 190 -169 0.878529
w 191 -190 169 0.118867
w 191 -190 -169 0.928618
w 192 191 170 0.986215
w 192 191 -170 0.723287
w 192 -191 170 0.275003
w 192 -191 -170 0.691845
w 193 192 171 0
w 193 192 -171 0
w 193 -192 171 0
w 193 -192 -171 1
w 194 193 172 1
w 194 193 -172 1
w 194 -193 172 0
w 194 -193 -172 0
w 195 194 173 0.678619
w 195 194 -173 0.0432404
w 195 -194 173 0.633734
w 195 -194 -173 0.927557
w 196 195 174 1
w 196 195 -174 0
w 196 -195 174 0
w 196 -195 -174 0
w 197 196 175 0
w 197 196 -175 0
w 197 -196 175 1
w 197 -196 -175 1
w 198 197 176 1
w 198 197 -176 0
w 198 -197 176 1
w 198 -197 -176 1
w 199 177 1
w 199 -177 0
w 200 199 178 1
w 200 199 -178 1
w 200 -199 178 0
w 200 -199 -178 1
w 201 200 179 0.383811
w 201 200 -179 0.917023
w 201 -200 179 0.828037
w 201 -200 -179 0.287447
w 202 201 180 0
w 202 201 -180 0
w 202 -201 180 1
w 202 -201 -180 0
w 203 202 181 0.615162
w 203 202 -181 0.785299
w 203 -202 181 0.349264
w 203 -202 -181 0.665194
w 204 203 182 1
w 204 203 -182 1
w 204 -203 182 0
w 204 -203 -182 0
w 205 204 183 0
w 205 204 -183 1
w 205 -204 183 1
w 205 -204 -183 0
w 206 205 184 0
w 206 205 -184 1
w 206 -205 184 1
w 206 -205 -184 0
w 207 206 185 0
w 207 206 -185 1
w 207 -206 185 1
w 207 -206 -185 1
w 208 207 186 0.771825
w 208 207 -186 0.315003
w 208 -207 186 0.411153
w 208 -207 -186 0.272742
w 209 208 187 0
w 209 208 -187 0
w 209 -208 187 1
w 209 -208 -187 1
w 210 209 188 0
w 210 209 -188 0
w 210 -209 188 1
w 210 -209 -188 1
w 211 210 189 0.0503854
w 211 210 -189 0.761499
w 211 -210 189 0.404591
w 211 -210 -189 0.718981
w 212 211 190 1
w 212 211 -190 1
w 212 -211 190 0
w 212 -211 -190 1
w 213 212 191 0
w 213 212 -191 1
w 213 -212 191 1
w 213 -212 -191 1
w 214 213 192 0
w 214 213 -192 1
w 214 -213 192 1
w 214 -213 -192 1
w 215 214 193 0
w 215 214 -193 1
w 215 -214 193 0
w 215 -214 -193 1
w 216 215 194 1
w 216 215 -194 0
w 216 -215 194 1
w 216 -215 -194 0
w 217 216 195 0.752634
w 217 216 -195 0.136734
w 217 -216 195 0.684563
w 217 -216 -195 0.157226
w 218 217 196 0.0637911
w 218 217 -196 0.617459
w 218 -217 196 0.873927
w 218 -217 -196 0.621206
w 219 218 197 0.26743
w 219 218 -197 0.251132
w 219 -218 197 0.0894261
w 219 -218 -197 0.953246
w 220 219 198 0.772419
w 220 219 -198 0.527016
w 220 -219 198 0.0839038
w 220 -219 -198 0.770415
w 221 199 1
w 221 -199 0
w 222 221 200 0.523179
w 222 221 -200 0.292026
w 222 -221 200 0.41327
w 222 -221 -200 0.225927
w 223 222 201 0.882675
w 223 222 -201 0.213939
w 223 -222 201 0.0704009
w 223 -222 -201 0.805739
w 224 223 202 0.207135
w 224 223 -202 0.490303
w 224 -223 202 0.123799
w 224 -223 -202 0.0628498
w 225 224 203 0
w 225 224 -203 1
w 225 -224 203 0
w 225 -224 -203 1
w 226 225 204 1
w 226 225 -204 1
w 226 -225 204 0
w 226 -225 -204 1
w 227 226 205 1
w 227 226 -205 0
w 227 -226 205 0
w 227 -226 -205 1
w 228 227 206 1
w 228 227 -206 0
w 228 -227 206 1
w 228 -227 -206 1
w 229 228 207 1
w 229 228 -207 1
w 229 -228 207 1
w 229 -228 -207 0
w 230 229 208 1
w 230 229 -208 0
w 230 -229 208 1
w 230 -229 -208 1
w 231 230 209 1
w 231 230 -209 0
w 231 -230 209 1
w 231 -230 -209 1
w 232 231 210 0
w 232 231 -210 0
w 232 -231 210 1
w 232 -231 -210 0
w 233 232 211 1
w 233 232 -211 1
w 233 -232 211 1
w 233 -232 -211 0
w 234 233 212 0
w 234 233 -212 1
w 234 -233 212 1
w 234 -233 -212 1
w 235 234 213 0
w 235 234 -213 0
w 235 -234 213 0
w 235 -234 -213 1
w 236 235 214 0
w 236 235 -214 0
w 236 -235 214 1
w 236 -235 -214 1
w 237 236 215 0
w 237 236 -215 0
w 237 -236 215 0
w 237 -236 -215 1
w 238 237 216 0
w 238 237 -216 0
w 238 -237 216 0
w 238 -237 -216 1
w 239 238 217 0
w 239 238 -217 0
w 239 -238 217 0
w 239 -238 -217 1
w 240 239 218 0.699337
w 240 239 -218 0.960626
w 240 -239 218 0.332329
w 240 -239 -218 0.409272
w 241 240 219 0
w 241 240 -219 1
w 241 -240 219 1
w 241 -240 -219 0
w 242 241 220 0.60224
w 242 241 -220 0.547873
w 242 -241 220 0.0075184
w 242 -241 -220 0.140178
w 243 221 1
w 243 -221 0
w 244 243 222 1
w 244 243 -222 0
w 244 -243 222 1
w 244 -243 -222 1
w 245 244 223 0
w 245 244 -223 0
w 245 -244 223 1
w 245 -244 -223 0
w 246 245 224 1
w 246 245 -224 0
w 246 -245 224 1
w 246 -245 -224 0
w 247 246 225 0
w 247 246 -225 0
w 247 -246 225 1
w 247 -246 -225 1
w 248 247 226 0
w 248 247 -226 0
w 248 -247 226 0
w 248 -247 -226 1
w 249 248 227 1
w 249 248 -227 0
w 249 -248 227 1
w 249 -248 -227 0
w 250 249 228 0.94969
w 250 249 -228 0.544843
w 250 -249 228 0.719198
w 250 -249 -228 0.540781
w 251 250 229 0
w 251 250 -229 1
w 251 -250 229 0
w 251 -250 -229 0
w 252 251 230 1
w 252 251 -230 1
w 252 -251 230 1
w 252 -251 -230 0
w 253 252 231 1
w 253 252 -231 0
w 253 -252 231 0
w 253 -252 -231 0
w 254 253 232 1
w 254 253 -232 0
w 254 -253 232 1
w 254 -253 -232 1
w 255 254 233 0.934833
w 255 254 -233 0.442557
w 255 -254 233 0.857367
w 255 -254 -233 0.92773
w 256 255 234 0
w 256 255 -234 0
w 256 -255 234 0
w 256 -255 -234 1
w 257 256 235 0
w 257 256 -235 1
w 257 -256 235 0
w 257 -256 -235 0
w 258 257 236 1
w 258 257 -236 0
w 258 -257 236 1
w 258 -257 -236 0
w 259 258 237 0.827134
w 259 258 -237 0.287752
w 259 -258 237 0.867311
w 259 -258 -237 0.998144
w 260 259 238 1
w 260 259 -238 1
w 260 -259 238 0
w 260 -259 -238 1
w 261 260 239 1
w 261 260 -239 0
w 261 -260 239 0
w 261 -260 -239 1
w 262 261 240 0
w 262 261 -240 1
w 262 -261 240 0
w 262 -261 -240 1
w 263 262 241 1
w 263 262 -241 1
w 263 -262 241 0
w 263 -262 -241 1
w 264 263 242 0
w 264 263 -242 0
w 264 -263 242 1
w 264 -263 -242 1
w 265 243 0.531166
w 265 -243 0.603473
w 266 265 244 0
w 266 265 -244 1
w 266 -265 244 0
w 266 -265 -244 1
w 267 266 245 0.596363
w 267 266 -245 0.499023
w 267 -266 245 0.582355
w 267 -266 -245 0.793743
w 268 267 246 0
w 268 267 -246 0
w 268 -267 246 1
w 268 -267 -246 0
w 269 268 247 1
w 269 268 -247 0
w 269 -268 247 1
w 269 -268 -247 0
w 270 269 248 0
w 270 269 -248 0
w 270 -269 248 0
w 270 -269 -248 1
w 271 270 249 1
w 271 270 -249 0
w 271 -270 249 1
w 271 -270 -249 0
w 272 271 250 1
w 272 271 -250 0
w 272 -271 250 0
w 272 -271 -250 0
w 273 272 251 0
w 273 272 -251 1
w 273 -272 251 0
w 273 -272 -251 0
w 274 273 252 0
w 274 273 -252 0
w 274 -273 252 0
w 274 -273 -252 1
w 275 274 253 0
w 275 274 -253 0
w 275 -274 253 1
w 275 -274 -253 0
w 276 275 254 1
w 276 275 -254 0
w 276 -275 254 1
w 276 -275 -254 0
w 277 276 255 0
w 277 276 -255 1
w 277 -276 255 1
w 277 -276 -255 1
w 278 277 256 0.0947427
w 278 277 -256 0.68264
w 278 -277 256 0.540652
w 278 -277 -256 0.780755
w 279 278 257 1
w 279 278 -257 1
w 279 -278 257 0
w 279 -278 -257 1
w 280 279 258 1
w 280 279 -258 0
w 280 -279 258 1
w 280 -279 -258 1
w 281 280 259 0
w 281 280 -259 0
w 281 -280 259 1
w 281 -280 -259 1
w 282 281 260 0
w 282 281 -260 0
w 282 -281 260 0
w 282 -281 -260 1
w 283 282 261 0.97563
w 283 282 -261 0.228265
w 283 -282 261 0.562575
w 283 -282 -261 0.69317
w 284 283 262 0
w 284 283 -262 1
w 284 -283 262 0
w 284 -283 -262 0
w 285 284 263 0
w 285 284 -263 1
w 285 -284 263 1
w 285 -284 -263 1
w 286 285 264 0.16314
w 286 285 -264 0.975894
w 286 -285 264 0.834899
w 286 -285 -264 0.637389
w 287 265 1
w 287 -265 0
w 288 287 266 0.24734
w 288 287 -266 0.198057
w 288 -287 266 0.446273
w 288 -287 -266 0.801628
w 289 288 267 0
w 289 288 -267 1
w 289 -288 267 1
w 289 -288 -267 0
w 290 289 268 1
w 290 289 -268 0
w 290 -289 268 0
w 290 -289 -268 1
w 291 290 269 0
w 291 290 -269 1
w 291 -290 269 1
w 291 -290 -269 1
w 292 291 270 0.615028
w 292 291 -270 0.92175
w 292 -291 270 0.471476
w 292 -291 -270 0.386071
w 293 292 271 1
w 293 292 -271 0
w 293 -292 271 1
w 293 -292 -271 1
w 294 293 272 0.703508
w 294 293 -272 0.968485
w 294 -293 272 0.991416
w 294 -293 -272 0.149781
w 295 294 273 0.0854804
w 295 294 -273 0.107632
w 295 -294 273 0.286051
w 295 -294 -273 0.129075
w 296 295 274 1
w 296 295 -274 0
w 296 -295 274 0
w 296 -295 -274 0
w 297 296 275 1
w 297 296 -275 0
w 297 -296 275 1
w 297 -296 -275 1
w 298 297 276 0.419194
w 298 297 -276 0.680586
w 298 -297 276 0.697471
w 298 -297 -276 0.89067
w 299 298 277 1
w 299 298 -277 0
w 299 -298 277 0
w 299 -298 -277 0
w 300 299 278 1
w 300 299 -278 1
w 300 -299 278 0
w 300 -299 -278 1
w 301 300 279 0.157883
w 301 300 -279 0.465562
w 301 -300 279 0.0838363
w 301 -300 -279 0.286958
w 302 301 280 0
w 302 301 -280 1
w 302 -301 280 0
w 302 -301 -280 0
w 303 302 281 1
w 303 302 -281 1
w 303 -302 281 1
w 303 -302 -281 0
w 304 303 282 1
w 304 303 -282 0
w 304 -303 282 1
w 304 -303 -282 1
w 305 304 283 1
w 305 304 -283 1
w 305 -304 283 0
w 305 -304 -283 1
w 306 305 284 0.438187
w 306 305 -284 0.567484
w 306 -305 284 0.941075
w 306 -305 -284 0.510589
w 307 306 285 0.738861
w 307 306 -285 0.668472
w 307 -306 285 0.390975
w 307 -306 -285 0.822697
w 308 307 286 0.89765
w 308 307 -286 0.936786
w 308 -307 286 0.977633
w 308 -307 -286 0.0720901
w 309 287 0
w 309 -287 1
w 310 309 288 1
w 310 309 -288 1
w 310 -309 288 1
w 310 -309 -288 0
w 311 310 289 1
w 311 310 -289 1
w 311 -310 289 0
w 311 -310 -289 1
w 312 311 290 1
w 312 311 -290 1
w 312 -311 290 0
w 312 -311 -290 0
w 313 312 291 1
w 313 312 -291 1
w 313 -312 291 0
w 313 -312 -291 0
w 314 313 292 1
w 314 313 -292 0
w 314 -313 292 0
w 314 -313 -292 0
w 315 314 293 0
w 315 314 -293 1
w 315 -314 293 1
w 315 -314 -293 0
w 316 315 294 0
w 316 315 -294 1
w 316 -315 294 1
w 316 -315 -294 1
w 317 316 295 1
w 317 316 -295 1
w 317 -316 295 0
w 317 -316 -295 1
w 318 317 296 0.0187102
w 318 317 -296 0.618838
w 318 -317 296 0.00532159
w 318 -317 -296 0.731741
w 319 318 297 1
w 319 318 -297 0
w 319 -318 297 0
w 319 -318 -297 1
w 320 319 298 0
w 320 319 -298 0
w 320 -319 298 1
w 320 -319 -298 0
w 321 320 299 0
w 321 320 -299 0
w 321 -320 299 1
w 321 -320 -299 0
w 322 321 300 0.771787
w 322 321 -300 0.586195
w 322 -321 300 0.0451298
w 322 -321 -300 0.318473
w 323 322 301 0.754034
w 323 322 -301 0.519257
w 323 -322 301 0.417227
w 323 -322 -301 0.490797
w 324 323 302 0
w 324 323 -302 0
w 324 -323 302 0
w 324 -323 -302 1
w 325 324 303 1
w 325 324 -303 1
w 325 -324 303 0
w 325 -324 -303 0
w 326 325 304 0
w 326 325 -304 0
w 326 -325 304 0
w 326 -325 -304 1
w 327 326 305 0
w 327 326 -305 1
w 327 -326 305 1
w 327 -326 -305 1
w 328 327 306 1
w 328 327 -306 1
w 328 -327 306 0
w 328 -327 -306 1
w 329 328 307 0.00864799
w 329 328 -307 0.987268
w 329 -328 307 0.359982
w 329 -328 -307 0.452358
w 330 329 308 1
w 330 329 -308 0
w 330 -329 308 1
w 330 -329 -308 0
w 331 309 0.770816
w 331 -309 0.668391
w 332 331 310 0
w 332 331 -310 0
w 332 -331 310 1
w 332 -331 -310 0
w 333 332 311 0
w 333 332 -311 0
w 333 -332 311 0
w 333 -332 -311 1
w 334 333 312 1
w 334 333 -312 0
w 334 -333 312 1
w 334 -333 -312 0
w 335 334 313 1
w 335 334 -313 0
w 335 -334 313 0
w 335 -334 -313 1
w 336 335 314 0
w 336 335 -314 1
w 336 -335 314 1
w 336 -335 -314 1
w 337 336 315 0
w 337 336 -315 0
w 337 -336 315 0
w 337 -336 -315 1
w 338 337 316 1
w 338 337 -316 0
w 338 -337 316 1
w 338 -337 -316 1
w 339 338 317 0.652683
w 339 338 -317 0.427521
w 339 -338 317 0.379354
w 339 -338 -317 0.741839
w 340 339 318 1
w 340 339 -318 1
w 340 -339 318 1
w 340 -339 -318 0
w 341 340 319 0
w 341 340 -319 0
w 341 -340 319 1
w 341 -340 -319 0
w 342 341 320 0.569598
w 342 341 -320 0.815655
w 342 -341 320 0.795454
w 342 -341 -320 0.896418
w 343 342 321 0
w 343 342 -321 1
w 343 -342 321 1
w 343 -342 -321 0
w 344 343 322 0
w 344 343 -322 1
w 344 -343 322 0
w 344 -343 -322 1
w 345 344 323 0.140205
w 345 344 -323 0.0782273
w 345 -344 323 0.180689
w 345 -344 -323 0.882043
w 346 345 324 0.371466
w 346 345 -324 0.783058
w 346 -345 324 0.0165348
w 346 -345 -324 0.191496
w 347 346 325 0.18763
w 347 346 -325 0.210822
w 347 -346 325 0.277252
w 347 -346 -325 0.331797
w 348 347 326 0
w 348 347 -326 1
w 348 -347 326 1
w 348 -347 -326 0
w 349 348 327 0.248669
w 349 348 -327 0.657185
w 349 -348 327 0.895848
w 349 -348 -327 0.236439
w 350 349 328 0
w 350 349 -328 0
w 350 -349 328 0
w 350 -349 -328 1
w 351 350 329 0.225457
w 351 350 -329 0.0935413
w 351 -350 329 0.0381817
w 351 -350 -329 0.1075
w 352 351 330 0.409647
w 352 351 -330 0.890558
w 352 -351 330 0.91994
w 352 -351 -330 0.601144
w 353 331 0.10757
w 353 -331 0.811966
w 354 353 332 1
w 354 353 -332 1
w 354 -353 332 1
w 354 -353 -332 0
w 355 354 333 1
w 355 354 -333 0
w 355 -354 333 1
w 355 -354 -333 1
w 356 355 334 1
w 356 355 -334 1
w 356 -355 334 0
w 356 -355 -334 1
w 357 356 335 0.717404
w 357 356 -335 0.326071
w 357 -356 335 0.746082
w 357 -356 -335 0.942861
w 358 357 336 0
w 358 357 -336 1
w 358 -357 336 0
w 358 -357 -336 0
w 359 358 337 0.242959
w 359 358 -337 0.795055
w 359 -358 337 0.789876
w 359 -358 -337 0.350529
w 360 359 338 1
w 360 359 -338 1
w 360 -359 338 0
w 360 -359 -338 0
w 361 360 339 1
w 361 360 -339 1
w 361 -360 339 1
w 361 -360 -339 0
w 362 361 340 0
w 362 361 -340 0
w 362 -361 340 0
w 362 -361 -340 1
w 363 362 341 0.653208
w 363 362 -341 0.589426
w 363 -362 341 0.507897
w 363 -362 -341 0.596069
w 364 363 342 0
w 364 363 -342 1
w 364 -363 342 0
w 364 -363 -342 0
w 365 364 343 1
w 365 364 -343 0
w 365 -364 343 0
w 365 -364 -343 0
w 366 365 344 1
w 366 365 -344 1
w 366 -365 344 0
w 366 -365 -344 0
w 367 366 345 1
w 367 366 -345 1
w 367 -366 345 0
w 367 -366 -345 0
w 368 367 346 0
w 368 367 -346 1
w 368 -367 346 0
w 368 -367 -346 0
w 369 368 347 0
w 369 368 -347 0
w 369 -368 347 1
w 369 -368 -347 1
w 370 369 348 1
w 370 369 -348 1
w 370 -369 348 0
w 370 -369 -348 1
w 371 370 349 0.215061
w 371 370 -349 0.674062
w 371 -370 349 0.829194
w 371 -370 -349 0.508371
w 372 371 350 1
w 372 371 -350 0
w 372 -371 350 0
w 372 -371 -350 0
w 373 372 351 0
w 373 372 -351 0
w 373 -372 351 0
w 373 -372 -351 1
w 374 373 352 0.124688
w 374 373 -352 0.823263
w 374 -373 352 0.36604
w 374 -373 -352 0.132679
w 375 353 1
w 375 -353 0
w 376 375 354 0
w 376 375 -354 0
w 376 -375 354 0
w 376 -375 -354 1
w 377 376 355 0.419136
w 377 376 -355 0.0225347
w 377 -376 355 0.0401275
w 377 -376 -355 0.093198
w 378 377 356 0.548499
w 378 377 -356 0.482699
w 378 -377 356 0.404769
w 378 -377 -356 0.492073
w 379 378 357 0
w 379 378 -357 1
w 379 -378 357 1
w 379 -378 -357 1
w 380 379 358 1
w 380 379 -358 0
w 380 -379 358 1
w 380 -379 -358 1
w 381 380 359 0.872168
w 381 380 -359 0.0964943
w 381 -380 359 0.638263
w 381 -380 -359 0.119893
w 382 381 360 0.135379
w 382 381 -360 0.541465
w 382 -381 360 0.820463
w 382 -381 -360 0.805998
w 383 382 361 0
w 383 382 -361 0
w 383 -382 361 1
w 383 -382 -361 1
w 384 383 362 1
w 384 383 -362 0
w 384 -383 362 1
w 384 -383 -362 0
w 385 384 363 0
w 385 384 -363 0
w 385 -384 363 1
w 385 -384 -363 1
w 386 385 364 0
w 386 385 -364 0
w 386 -385 364 1
w 386 -385 -364 0
w 387 386 365 0
w 387 386 -365 1
w 387 -386 365 1
w 387 -386 -365 0
w 388 387 366 0.321223
w 388 387 -366 0.374987
w 388 -387 366 0.413361
w 388 -387 -366 0.141685
w 389 388 367 1
w 389 388 -367 1
w 389 -388 367 0
w 389 -388 -367 0
w 390 389 368 1
w 390 389 -368 0
w 390 -389 368 0
w 390 -389 -368 0
w 391 390 369 0
w 391 390 -369 1
w 391 -390 369 0
w 391 -390 -369 1
w 392 391 370 0
w 392 391 -370 1
w 392 -391 370 1
w 392 -391 -370 1
w 393 392 371 1
w 393 392 -371 0
w 393 -392 371 0
w 393 -392 -371 0
w 394 393 372 0.170523
w 394 393 -372 0.261752
w 394 -393 372 0.255505
w 394 -393 -372 0.583885
w 395 394 373 0
w 395 394 -373 1
w 395 -394 373 1
w 395 -394 -373 1
w 396 395 374 1
w 396 395 -374 0
w 396 -395 374 0
w 396 -395 -374 0
w 397 375 0.137361
w 397 -375 0.523417
w 398 397 376 0
w 398 397 -376 0
w 398 -397 376 0
w 398 -397 -376 1
w 399 398 377 0.310294
w 399 398 -377 0.284315
w 399 -398 377 0.624704
w 399 -398 -377 0.608921
w 400 399 378 0
w 400 399 -378 0
w 400 -399 378 1
w 400 -399 -378 0
w 401 400 379 0
w 401 400 -379 1
w 401 -400 379 0
w 401 -400 -379 1
w 402 401 380 0
w 402 401 -380 1
w 402 -401 380 0
w 402 -401 -380 0
w 403 402 381 0
w 403 402 -381 0
w 403 -402 381 1
w 403 -402 -381 0
w 404 403 382 0.0154431
w 404 403 -382 0.607526
w 404 -403 382 0.796233
w 404 -403 -382 0.779115
w 405 404 383 1
w 405 404 -383 0
w 405 -404 383 1
w 405 -404 -383 1
w 406 405 384 1
w 406 405 -384 1
w 406 -405 384 1
w 406 -405 -384 0
w 407 406 385 0
w 407 406 -385 1
w 407 -406 385 0
w 407 -406 -385 0
w 408 407 386 0
w 408 407 -386 0
w 408 -407 386 1
w 408 -407 -386 0
w 409 408 387 0.264745
w 409 408 -387 0.214047
w 409 -408 387 0.205304
w 409 -408 -387 0.183304
w 410 409 388 0
w 410 409 -388 1
w 410 -409 388 1
w 410 -409 -388 1
w 411 410 389 0.0976702
w 411 410 -389 0.633568
w 411 -410 389 0.067271
w 411 -410 -389 0.821285
w 412 411 390 1
w 412 411 -390 0
w 412 -411 390 1
w 412 -411 -390 1
w 413 412 391 0
w 413 412 -391 1
w 413 -412 391 0
w 413 -412 -391 1
w 414 413 392 0.935668
w 414 413 -392 0.394544
w 414 -413 392 0.0192694
w 414 -413 -392 0.0856553
w 415 414 393 0.895987
w 415 414 -393 0.3504
w 415 -414 393 0.123201
w 415 -414 -393 0.101291
w 416 415 394 0
w 416 415 -394 1
w 416 -415 394 1
w 416 -415 -394 1
w 417 416 395 1
w 417 416 -395 1
w 417 -416 395 1
w 417 -416 -395 0
w 418 417 396 0.684006
w 418 417 -396 0.543186
w 418 -417 396 0.521115
w 418 -417 -396 0.632257
w 419 397 0.725915
w 419 -397 0.251185
w 420 419 398 0.255805
w 420 419 -398 0.738008
w 420 -419 398 0.780145
w 420 -419 -398 0.191474
w 421 420 399 1
w 421 420 -399 0
w 421 -420 399 1
w 421 -420 -399 0
w 422 421 400 0
w 422 421 -400 1
w 422 -421 400 0
w 422 -421 -400 0
w 423 422 401 0.893685
w 423 422 -401 0.171369
w 423 -422 401 0.967431
w 423 -422 -401 0.603999
w 424 423 402 1
w 424 423 -402 1
w 424 -423 402 0
w 424 -423 -402 0
w 425 424 403 0.373941
w 425 424 -403 0.929402
w 425 -424 403 0.71133
w 425 -424 -403 0.0998553
w 426 425 404 1
w 426 425 -404 1
w 426 -425 404 0
w 426 -425 -404 1
w 427 426 405 1
w 427 426 -405 1
w 427 -426 405 1
w 427 -426 -405 0
w 428 427 406 0.451792
w 428 427 -406 0.25776
w 428 -427 406 0.654018
w 428 -427 -406 0.613026
w 429 428 407 0
w 429 428 -407 0
w 429 -428 407 1
w 429 -428 -407 0
w 430 429 408 1
w 430 429 -408 1
w 430 -429 408 0
w 430 -429 -408 1
w 431 430 409 0
w 431 430 -409 1
w 431 -430 409 0
w 431 -430 -409 0
w 432 431 410 1
w 432 431 -410 0
w 432 -431 410 0
w 432 -431 -410 1
w 433 432 411 1
w 433 432 -411 0
w 433 -432 411 0
w 433 -432 -411 1
w 434 433 412 0
w 434 433 -412 0
w 434 -433 412 1
w 434 -433 -412 1
w 435 434 413 1
w 435 434 -413 0
w 435 -434 413 0
w 435 -434 -413 1
w 436 435 414 1
w 436 435 -414 0
w 436 -435 414 1
w 436 -435 -414 1
w 437 436 415 0.0259272
w 437 436 -415 0.64321
w 437 -436 415 0.166521
w 437 -436 -415 0.622942
w 438 437 416 1
w 438 437 -416 1
w 438 -437 416 1
w 438 -437 -416 0
w 439 438 417 0
w 439 438 -417 0
w 439 -438 417 1
w 439 -438 -417 1
w 440 439 418 1
w 440 439 -418 1
w 440 -439 418 0
w 440 -439 -418 0
w 441 419 0.598298
w 441 -419 0.0785323
w 442 441 420 0.203754
w 442 441 -420 0.230232
w 442 -441 420 0.912437
w 442 -441 -420 0.301505
w 443 442 421 0
w 443 442 -421 1
w 443 -442 421 0
w 443 -442 -421 0
w 444 443 422 1
w 444 443 -422 0
w 444 -443 422 1
w 444 -443 -422 0
w 445 444 423 0
w 445 444 -423 0
w 445 -444 423 0
w 445 -444 -423 1
w 446 445 424 1
w 446 445 -424 0
w 446 -445 424 0
w 446 -445 -424 1
w 447 446 425 0
w 447 446 -425 1
w 447 -446 425 1
w 447 -446 -425 1
w 448 447 426 1
w 448 447 -426 0
w 448 -447 426 1
w 448 -447 -426 0
w 449 448 427 0.871296
w 449 448 -427 0.241384
w 449 -448 427 0.656263
w 449 -448 -427 0.945952
w 450 449 428 0.115794
w 450 449 -428 0.187129
w 450 -449 428 0.960054
w 450 -449 -428 0.929297
w 451 450 429 0
w 451 450 -429 1
w 451 -450 429 0
w 451 -450 -429 1
w 452 451 430 1
w 452 451 -430 0
w 452 -451 430 0
w 452 -451 -430 1
w 453 452 431 0
w 453 452 -431 1
w 453 -452 431 1
w 453 -452 -431 0
w 454 453 432 1
w 454 453 -432 1
w 454 -453 432 1
w 454 -453 -432 0
w 455 454 433 1
w 455 454 -433 1
w 455 -454 433 0
w 455 -454 -433 1
w 456 455 434 1
w 456 455 -434 0
w 456 -455 434 1
w 456 -455 -434 1
w 457 456 435 0
w 457 456 -435 0
w 457 -456 435 1
w 457 -456 -435 1
w 458 457 436 0
w 458 457 -436 1
w 458 -457 436 1
w 458 -457 -436 0
w 459 458 437 0.0901763
w 459 458 -437 0.48639
w 459 -458 437 0.751722
w 459 -458 -437 0.998306
w 460 459 438 1
w 460 459 -438 0
w 460 -459 438 0
w 460 -459 -438 0
w 461 460 439 0
w 461 460 -439 1
w 461 -460 439 1
w 461 -460 -439 0
w 462 461 440 1
w 462 461 -440 1
w 462 -461 440 0
w 462 -461 -440 1
w 463 441 1
w 463 -441 0
w 464 463 442 0.51595
w 464 463 -442 0.387954
w 464 -463 442 0.398205
w 464 -463 -442 0.118744
w 465 464 443 0
w 465 464 -443 1
w 465 -464 443 0
w 465 -464 -443 0
w 466 465 444 0
w 466 465 -444 1
w 466 -465 444 1
w 466 -465 -444 0
w 467 466 445 1
w 467 466 -445 0
w 467 -466 445 1
w 467 -466 -445 1
w 468 467 446 0
w 468 467 -446 1
w 468 -467 446 0
w 468 -467 -446 0
w 469 468 447 1
w 469 468 -447 1
w 469 -468 447 0
w 469 -468 -447 1
w 470 469 448 0.858769
w 470 469 -448 0.109449
w 470 -469 448 0.172157
w 470 -469 -448 0.256974
w 471 470 449 1
w 471 470 -449 1
w 471 -470 449 1
w 471 -470 -449 0
w 472 471 450 0
w 472 471 -450 0
w 472 -471 450 1
w 472 -471 -450 1
w 473 472 451 0.626761
w 473 472 -451 0.444234
w 473 -472 451 0.75535
w 473 -472 -451 0.174027
w 474 473 452 1
w 474 473 -452 1
w 474 -473 452 0
w 474 -473 -452 1
w 475 474 453 0
w 475 474 -453 1
w 475 -474 453 0
w 475 -474 -453 0
w 476 475 454 0.365022
w 476 475 -454 0.767993
w 476 -475 454 0.922846
w 476 -475 -454 0.537179
w 477 476 455 0
w 477 476 -455 1
w 477 -476 455 0
w 477 -476 -455 1
w 478 477 456 0.420991
w 478 477 -456 0.479241
w 478 -477 456 0.891489
w 478 -477 -456 0.648523
w 479 478 457 0
w 479 478 -457 0
w 479 -478 457 0
w 479 -478 -457 1
w 480 479 458 1
w 480 479 -458 0
w 480 -479 458 1
w 480 -479 -458 1
w 481 480 459 0
w 481 480 -459 1
w 481 -480 459 1
w 481 -480 -459 0
w 482 481 460 1
w 482 481 -460 0
w 482 -481 460 0
w 482 -481 -460 0
w 483 482 461 1
w 483 482 -461 0
w 483 -482 461 0
w 483 -482 -461 1
w 484 483 462 0
w 484 483 -462 1
w 484 -483 462 1
w 484 -483 -462 1